
Gurobi 10.0.1 (mac64[arm]) logging started Wed Mar 27 15:31:11 2024

Set parameter LogFile to value "/Users/deniserings/Documents/zib/s-bahn-data/scripts/DeniseMA/processed/BWKS_medium_september/original/BWKS_medium_september_2024-03-27 12:04_equality.log"
Gurobi Optimizer version 10.0.1 build v10.0.1rc0 (mac64[arm])

CPU model: Apple M2
Thread count: 8 physical cores, 8 logical processors, using up to 8 threads

Optimize a model with 9843 rows, 4887 columns and 48721 nonzeros
Model fingerprint: 0xace2179a
Variable types: 1358 continuous, 3529 integer (1331 binary)
Coefficient statistics:
  Matrix range     [1e+00, 2e+02]
  Objective range  [1e+00, 4e+02]
  Bounds range     [1e+00, 2e+02]
  RHS range        [1e+00, 5e+02]
Presolve removed 4274 rows and 1212 columns
Presolve time: 0.21s
Presolved: 5569 rows, 3675 columns, 33803 nonzeros
Variable types: 855 continuous, 2820 integer (2820 binary)
Found heuristic solution: objective 10409.000000

Root relaxation: objective 8.158000e+03, 1423 iterations, 0.03 seconds (0.03 work units)

    Nodes    |    Current Node    |     Objective Bounds      |     Work
 Expl Unexpl |  Obj  Depth IntInf | Incumbent    BestBd   Gap | It/Node Time

     0     0 8158.00000    0  148 10409.0000 8158.00000  21.6%     -    0s
     0     0 8161.42066    0  227 10409.0000 8161.42066  21.6%     -    1s
     0     0 8161.42066    0  209 10409.0000 8161.42066  21.6%     -    1s
     0     0 8170.74565    0  242 10409.0000 8170.74565  21.5%     -    1s
     0     0 8180.00000    0  244 10409.0000 8180.00000  21.4%     -    1s
     0     0 8180.00000    0  242 10409.0000 8180.00000  21.4%     -    1s
     0     0 8180.00000    0  242 10409.0000 8180.00000  21.4%     -    1s
     0     0 8180.00000    0  225 10409.0000 8180.00000  21.4%     -    1s
     0     0 8180.00000    0  223 10409.0000 8180.00000  21.4%     -    1s
     0     0 8180.00000    0  220 10409.0000 8180.00000  21.4%     -    1s
     0     0 8180.00000    0  118 10409.0000 8180.00000  21.4%     -    2s
     0     0 8180.00000    0  137 10409.0000 8180.00000  21.4%     -    2s
H    0     0                    10387.000000 8180.00000  21.2%     -    2s
     0     0 8180.00000    0   99 10387.0000 8180.00000  21.2%     -    2s
     0     0 8180.00000    0  127 10387.0000 8180.00000  21.2%     -    2s
     0     0 8180.00000    0  116 10387.0000 8180.00000  21.2%     -    2s
H    0     0                    10384.000000 8180.00000  21.2%     -    2s
     0     0 8180.00000    0  122 10384.0000 8180.00000  21.2%     -    2s
H    0     0                    10382.000000 8180.00000  21.2%     -    2s
H    0     0                    10351.000000 8180.00000  21.0%     -    2s
     0     0 8180.00000    0  109 10351.0000 8180.00000  21.0%     -    2s
     0     0 8180.00000    0  162 10351.0000 8180.00000  21.0%     -    2s
H    0     0                    10348.000000 8180.00000  21.0%     -    2s
H    0     0                    10331.000000 8180.00000  20.8%     -    3s
H    0     0                    10274.000000 8180.00000  20.4%     -    3s
H    0     0                    10269.000000 8180.00000  20.3%     -    3s
     0     0 8180.00000    0   79 10269.0000 8180.00000  20.3%     -    3s
     0     0 8180.00000    0  130 10269.0000 8180.00000  20.3%     -    3s
     0     0 8180.00000    0   91 10269.0000 8180.00000  20.3%     -    3s
H    0     0                    10268.000000 8180.00000  20.3%     -    3s
     0     0 8180.00000    0   75 10268.0000 8180.00000  20.3%     -    3s
     0     2 8180.00000    0   69 10268.0000 8180.00000  20.3%     -    3s
H  128   131                    10266.000000 8180.00000  20.3%  48.6    3s
H  161   168                    9933.0000000 8180.00000  17.6%  42.9    3s
H  203   212                    9923.0000000 8180.00000  17.6%  38.8    4s
H  203   212                    9667.0000000 8180.00000  15.4%  38.8    4s
H  246   252                    9661.0000000 8180.00000  15.3%  36.2    4s
H  251   252                    9660.0000000 8180.00000  15.3%  36.1    4s
  1101  1074 9072.00000   98  129 9660.00000 8180.00000  15.3%  24.2    5s
H 1318  1201                    9657.0000000 8180.00000  15.3%  22.8    5s
  1475  1338 8450.00000   13   80 9657.00000 8234.48797  14.7%  21.8   10s
H 1482  1275                    9654.0000000 8251.89449  14.5%  21.7   11s
H 1490  1215                    9632.0000000 8262.43437  14.2%  21.5   12s
H 1492  1155                    9631.0000000 8263.70802  14.2%  21.5   12s
H 1500  1102                    9630.0000000 8271.15894  14.1%  21.4   13s
H 1500  1046                    8866.0000000 8282.10811  6.59%  21.4   13s
  1512  1054 8522.00000   59  111 8866.00000 8290.39278  6.49%  21.2   15s
  1513  1054 8658.00000   41  107 8866.00000 8290.49881  6.49%  21.2  205s
H 1530  1012                    8841.0000000 8307.30216  6.04%  21.0  208s
  1548  1025 8784.00000   30  143 8841.00000 8310.76616  6.00%  57.1  210s
H 1559   980                    8830.0000000 8312.40470  5.86%  56.7  211s
H 1580   943                    8813.0000000 8313.94272  5.66%  55.9  213s
H 1584   898                    8812.0000000 8313.94519  5.65%  55.8  214s
H 1586   853                    8811.0000000 8313.94519  5.64%  55.7  214s
  1595   861 8811.00000   84  131 8811.00000 8313.94519  5.64%  80.9  215s
H 1614   829                    8801.0000000 8313.94519  5.53%  79.9  217s
H 1699   844                    8798.0000000 8390.36810  4.63%  92.8  219s
  1977  1031 8472.00000   63   71 8798.00000 8390.36810  4.63%  84.4  220s
* 3937  1977             215    8795.0000000 8391.03263  4.59%  56.7  221s
H 4068  2004                    8777.0000000 8391.03263  4.40%  56.1  221s
H 5716  3203                    8772.0000000 8450.00000  3.67%  48.7  223s
  9408  6262     cutoff   58      8772.00000 8450.00000  3.67%  39.7  225s
 14356 10259 8466.00000   55  104 8772.00000 8450.00000  3.67%  36.4  238s
 15382 11396 8755.00000  111   80 8772.00000 8450.00000  3.67%  36.8  240s
 23391 17332 8478.00000   73   92 8772.00000 8450.00231  3.67%  34.3  245s
 29395 20463 8466.00000   73   75 8772.00000 8450.01803  3.67%  32.5  254s
 29397 20464 8633.00000  173  121 8772.00000 8450.01803  3.67%  32.5  255s
 29408 20472 8518.00000  102  165 8772.00000 8450.01803  3.67%  32.5  260s
 29411 20474 8582.00000   67  122 8772.00000 8450.01803  3.67%  32.5  266s
 29413 20475 8677.00000  125  115 8772.00000 8450.01803  3.67%  32.5  429s
 29414 20476 8678.00000   65  109 8772.00000 8450.01803  3.67%  32.5  430s
 31749 21501 8670.00000   79  117 8772.00000 8450.01803  3.67%  33.3  435s
 34008 22553 infeasible   97      8772.00000 8450.01803  3.67%  33.3 1478s

Cutting planes:
  Learned: 52
  Gomory: 28
  Cover: 52
  Implied bound: 8
  Projected implied bound: 1
  Clique: 5
  MIR: 54
  StrongCG: 3
  Flow cover: 214
  GUB cover: 3
  Zero half: 7
  Network: 2
  RLT: 23
  Relax-and-lift: 9

Explored 34330 nodes (1163661 simplex iterations) in 1478.68 seconds (76.34 work units)
Thread count was 8 (of 8 available processors)

Solution count 10: 8772 8777 8795 ... 8841

Solve interrupted
Best objective 8.772000000000e+03, best bound 8.450018027746e+03, gap 3.6706%

User-callback calls 95889, time in user-callback 0.32 sec

Statistics for modelBWKS_medium_september:
  Linear constraint matrix    : 9843 Constrs, 4887 Vars, 48721 NZs
  Variable types              : 1358 Continuous,
3529 Integer (1331 Binary)
  Matrix coefficient range    : [ 1, 200 ]
  Objective coefficient range : [ 1, 396 ]
  Variable bound range        : [ 1, 199 ]
  RHS coefficient range       : [ 1, 549 ]
